scenarios/sols/small/emicp_milp/023.sol
objective value:                      1.0593370973003
x(0,4,0)                                            1 	(obj:0)
x(1,7,1)                                            1 	(obj:0)
x(2,4,2)                                            1 	(obj:0)
x(3,11,1)                                           1 	(obj:0)
x(4,5,0)                                            1 	(obj:0)
x(4,9,2)                                            1 	(obj:0)
x(5,10,0)                                           1 	(obj:0)
x(7,3,1)                                            1 	(obj:0)
x(9,12,2)                                           1 	(obj:0)
x(10,0,0)                                           1 	(obj:0)
x(11,1,1)                                           1 	(obj:0)
x(12,2,2)                                           1 	(obj:0)
xc(3,6)                                             1 	(obj:0)
xc(5,7)                                             1 	(obj:0)
xc(7,5)                                             1 	(obj:0)
u(0,2)                                1.0593370973003 	(obj:0)
u(3,1)                              0.971417578018599 	(obj:0)
u(4,0)                              0.347515814860699 	(obj:0)
u(4,2)                               0.24561450060995 	(obj:0)
u(5,0)                              0.863444669502899 	(obj:0)
u(7,1)                                0.4869230847436 	(obj:0)
u(9,2)                              0.919548239984799 	(obj:0)
u(10,0)                               1.0593370973003 	(obj:0)
u(10,1)                               0.4912290012199 	(obj:0)
u(10,2)                               0.4912290012199 	(obj:0)
u(11,0)                               0.4912290012199 	(obj:0)
u(11,1)                               1.0593370973003 	(obj:0)
u(11,2)                               1.0593370973003 	(obj:0)
u(12,0)                               0.4912290012199 	(obj:0)
u(12,1)                               0.4912290012199 	(obj:0)
u(12,2)                               1.0593370973003 	(obj:0)
u(13,0)                               0.4912290012199 	(obj:0)
u(13,2)                               0.4912290012199 	(obj:0)
u(14,0)                             0.320036426844799 	(obj:0)
u(14,1)                               0.4912290012199 	(obj:0)
u(14,2)                             0.245163634053601 	(obj:0)
u(15,0)                               0.1878804321611 	(obj:0)
u(15,1)                               0.4912290012199 	(obj:0)
u(15,2)                               0.4912290012199 	(obj:0)
u(16,0)                               0.4912290012199 	(obj:0)
u(16,1)                            0.0690501143241011 	(obj:0)
u(16,2)                               0.4912290012199 	(obj:0)
u(17,0)                                0.298328254847 	(obj:0)
u(17,1)                               0.3582477084305 	(obj:0)
u(17,2)                               0.4912290012199 	(obj:0)
u(18,0)                               0.3558352171223 	(obj:0)
u(18,1)                               0.4912290012199 	(obj:0)
u(18,2)                               0.4912290012199 	(obj:0)
u(19,0)                               0.4912290012199 	(obj:0)
u(19,1)                               1.0593370973003 	(obj:0)
u(19,2)                               0.1396688818272 	(obj:0)
f(0,4,0)                                            1 	(obj:0)
f(0,4,1)                                            1 	(obj:0)
f(0,4,3)                                            1 	(obj:0)
f(1,7,1)                                            1 	(obj:0)
f(1,7,3)                                            1 	(obj:0)
f(2,4,2)                                            1 	(obj:0)
f(3,11,3)                                           1 	(obj:0)
f(4,9,0)                                            1 	(obj:0)
f(4,9,1)                                            1 	(obj:0)
f(4,9,2)                                            1 	(obj:0)
f(4,9,3)                                            1 	(obj:0)
f(4,9,4)                                            1 	(obj:0)
f(5,7,0)                                            1 	(obj:0)
f(5,10,1)                                           1 	(obj:0)
f(5,10,3)                                           1 	(obj:0)
f(7,5,0)                                            1 	(obj:0)
f(7,5,1)                                            1 	(obj:0)
f(7,5,3)                                            1 	(obj:0)
f(10,0,1)                                           1 	(obj:0)
f(10,0,3)                                           1 	(obj:0)
f(11,1,3)                                           1 	(obj:0)
z_r(0,)                               1.0593370973003 	(obj:0)
z_r(1,)                               1.0593370973003 	(obj:0)
z_r(2,)                               1.0593370973003 	(obj:0)
z                                     1.0593370973003 	(obj:1)
