scenarios/sols/small/emicp_milp/023.out
b'The following solver is parallelized by UG version 0.9.1 [GitHash: ]\n'
b'SCIP version 7.0.2 [precision: 8 byte] [memory: block] [mode: optimized] [LP solver: SoPlex 5.0.2] [GitHash: e9d280a398]\n'
b'Copyright (C) 2002-2020 Konrad-Zuse-Zentrum fuer Informationstechnik Berlin (ZIB)\n'
b'External codes: \n'
b'  Readline 7.0         GNU library for command line editing (gnu.org/s/readline)\n'
b'  SoPlex 5.0.2         Linear Programming Solver developed at Zuse Institute Berlin (soplex.zib.de) [GitHash: e24c304e]\n'
b'  CppAD 20180000.0     Algorithmic Differentiation of C++ algorithms developed by B. Bell (www.coin-or.org/CppAD)\n'
b'  ZLIB 1.2.11          General purpose compression library by J. Gailly and M. Adler (zlib.net)\n'
b'  GMP 6.1.2            GNU Multiple Precision Arithmetic Library developed by T. Granlund (gmplib.org)\n'
b'  ZIMPL 3.4.0          Zuse Institute Mathematical Programming Language developed by T. Koch (zimpl.zib.de)\n'
b'Default LC presolving (default).\n'
b'Original Problem   :\n'
b'  Problem name     : 023\n'
b'  Variables        : 5777 (1600 binary, 0 integer, 0 implicit integer, 4177 continuous)\n'
b'  Constraints      : 14377\n'
b'  Objective sense  : minimize\n'
b'Presolved Problem  :\n'
b'  Variables        : 951 (290 binary, 0 integer, 0 implicit integer, 661 continuous)\n'
b'  Constraints      : 1101\n'
b'Constraints        : Number\n'
b'  varbound         : 150 \n'
b'  knapsack         : 5 \n'
b'  setppc           : 57 \n'
b'  linear           : 886 \n'
b'  logicor          : 3 \n'
b'** Instance transfer method used: 0\n'
b'** ParaScipInstance copy does not increase the number of variables. **\n'
b'LC is working with racing ramp-up and with rebuilding tree after racing.\n'
b'                               Nodes    Active                                            \n'
b'     Time          Nodes        Left   Solvers     Best Integer        Best Node       Gap     Best Node(S)    Gap(S)\n'
b'*       0              0           1         8           3.0489                -         -\n'
b'*       1              2           1         8           2.6415           0.4912   437.74%\n'
b'*       1              2           1         8           1.7724           0.4912   260.82%\n'
b'*       1              2           1         8           1.7468           0.4912   255.60%\n'
b'*       1              2           1         8           1.5550           0.4912   216.55%\n'
b'Racing ramp-up finished after 4.28 seconds. Selected strategy 7.\n'
b'        5           1092         485         8           1.5550           0.4912    216.55%           0.4912    216.55%\n'
b'       10           8834        5428         8           1.5550           0.4912    216.55%           0.4912    216.55%\n'
b'       15          20945        8282         8           1.5550           0.4912    216.55%           0.4912    216.55%\n'
b'       20          35522       10019         8           1.5550           0.4912    216.55%           0.4912    216.55%\n'
b'       25          49721       10820         8           1.5550           0.4912    216.55%           0.4912    216.55%\n'
b'       31          63815       11835         8           1.5550           0.4912    216.55%           0.4912    216.55%\n'
b'       36          78579       12991         8           1.5550           0.4912    216.55%           0.4912    216.55%\n'
b'       41          92810       13866         8           1.5550           0.4912    216.55%           0.4912    216.55%\n'
b'       46         107767       14666         8           1.5550           0.4912    216.55%           0.4912    216.55%\n'
b'       51         122025       15508         8           1.5550           0.4912    216.55%           0.4912    216.55%\n'
b'       56         136289       16349         8           1.5550           0.4912    216.55%           0.4912    216.55%\n'
b'       61         150943       17193         8           1.5550           0.4912    216.55%           0.4912    216.55%\n'
b'       66         166895       18189         8           1.5550           0.4912    216.55%           0.4912    216.55%\n'
b'       71         182877       18985         8           1.5550           0.4912    216.55%           0.4912    216.55%\n'
b'       76         198564       19880         8           1.5550           0.4912    216.55%           0.4912    216.55%\n'
b'       81         213673       20898         8           1.5550           0.4912    216.55%           0.4912    216.55%\n'
b'       86         232133       21949         8           1.5550           0.4912    216.55%           0.4912    216.55%\n'
b'       91         249163       22712         8           1.5550           0.4912    216.55%           0.4912    216.55%\n'
b'*      95         262040       23253         8           1.5363           0.4912    212.74%           0.4912    212.74%\n'
b'*      95         262363       23279         8           1.2358           0.4912    151.58%           0.4912    151.58%\n'
b'       96         266361       22668         8           1.2358           0.4912    151.58%           0.4912    151.58%\n'
b'      101         282221       23498         8           1.2358           0.4912    151.58%           0.4912    151.58%\n'
b'      106         296510       24062         8           1.2358           0.4912    151.58%           0.4912    151.58%\n'
b'      112         311868       24677         8           1.2358           0.4912    151.58%           0.4912    151.58%\n'
b'      117         328673       25333         8           1.2358           0.4912    151.58%           0.4912    151.58%\n'
b'      122         343001       25974         8           1.2358           0.4912    151.58%           0.4912    151.58%\n'
b'      127         357434       26715         8           1.2358           0.4912    151.58%           0.4912    151.58%\n'
b'      132         371618       27325         8           1.2358           0.4912    151.58%           0.4912    151.58%\n'
b'      137         387684       27940         8           1.2358           0.4912    151.58%           0.4912    151.58%\n'
b'      142         402132       28390         8           1.2358           0.4912    151.58%           0.4912    151.58%\n'
b'*     144         407173       28545         8           1.1595           0.4912    136.04%           0.4912    136.04%\n'
b'      147         417127       28461         8           1.1595           0.4912    136.04%           0.4912    136.04%\n'
b'      152         432659       28100         8           1.1595           0.4912    136.04%           0.4912    136.04%\n'
b'      157         449260       28153         8           1.1595           0.4912    136.04%           0.4912    136.04%\n'
b'      163         467589       28452         8           1.1595           0.4912    136.04%           0.4912    136.04%\n'
b'      168         485248       29127         8           1.1595           0.4912    136.04%           0.4912    136.04%\n'
b'      173         502889       29733         8           1.1595           0.4912    136.04%           0.4912    136.04%\n'
b'*     177         520901       27310         8           1.0973           0.4912    123.37%           0.4912    123.37%\n'
b'      178         521892       25865         8           1.0973           0.4912    123.37%           0.4912    123.37%\n'
b'      183         534246       26426         8           1.0973           0.4912    123.37%           0.4912    123.37%\n'
b'*     187         550717       26964         8           1.0593           0.4912    115.65%           0.4912    115.65%\n'
b'      188         553170       24210         8           1.0593           0.4912    115.65%           0.4912    115.65%\n'
b'      193         564212       24295         8           1.0593           0.4912    115.65%           0.4912    115.65%\n'
b'      198         571917       24348         8           1.0593           0.4912    115.65%           0.4912    115.65%\n'
b'      203         580948       24612         8           1.0593           0.4912    115.65%           0.4912    115.65%\n'
b'      208         589072       24443         8           1.0593           0.4912    115.65%           0.4912    115.65%\n'
b'      213         596180       23957         8           1.0593           0.4912    115.65%           0.4912    115.65%\n'
b'      218         603564       22768         8           1.0593           0.5434     94.94%           0.5434     94.94%\n'
b'      223         610730       22613         8           1.0593           0.5664     87.04%           0.5664     87.04%\n'
b'      228         618616       22488         8           1.0593           0.5818     82.07%           0.5818     82.07%\n'
b'      233         625565       22337         8           1.0593           0.5818     82.07%           0.5818     82.07%\n'
b'      238         633681       21937         8           1.0593           0.5818     82.07%           0.5818     82.07%\n'
b'      243         642827       20249         8           1.0593           0.5818     82.07%           0.5818     82.07%\n'
b'      248         652018       16761         8           1.0593           0.5818     82.07%           0.5818     82.07%\n'
b'      253         658927       14496         8           1.0593           0.5931     78.60%           0.5931     78.60%\n'
b'      258         661885       13881         8           1.0593           0.5931     78.60%           0.5931     78.60%\n'
b'      263         663812       13248         8           1.0593           0.6060     74.81%           0.6079     74.25%\n'
b'      268         665968       12507         8           1.0593           0.6355     66.68%           0.6409     65.28%\n'
b'      274         668351       11609         8           1.0593           0.6719     57.67%           0.6719     57.67%\n'
b'      279         670937       10442         8           1.0593           0.7062     50.01%           0.7062     50.01%\n'
b'      284         673621        8951         8           1.0593           0.7531     40.66%           0.7553     40.26%\n'
b'      289         676360        7300         8           1.0593           0.7878     34.47%           0.7890     34.26%\n'
b'      294         679420        5527         8           1.0593           0.9021     17.44%           0.9021     17.44%\n'
b'      299         682567        3259         8           1.0593           1.0334      2.51%           1.0334      2.51%\n'
b'      299         682797           0         0           1.0593           1.0593      0.00%\n'
b'SCIP Status        : problem is solved\n'
b'Total Time         : 299.12\n'
b'  solving          : 299.12\n'
b'  presolving       : 0.06 (included in solving)\n'
b'B&B Tree           :\n'
b'  nodes (total)    : 682797\n'
b'Solution           :\n'
b'  Solutions found  : 10\n'
b'  Primal Bound     : +1.05933709730030e+00\n'
b'  Dual Bound       : +1.05933709730030e+00\n'
b'Gap                : 0.00000 %\n'
